
  22   10
  10   10   10   10   10   10   10   10   10   10

   0   0   0   0   0   0   0   0   0   0   0   4 2 3 5 6 
   8  10  10  10  10  10  10  10  10  10  10   6 12 11 10 9 8 7 
   4  10  10  10  10  10  10  10  10  10  10   3 12 11 4 
   8  10  10  10  10  10  10  10  10  10  10   3 15 10 8 
   4  10  10  10  10  10  10  10  10  10  10   2 12 10 
   1  10  10  10  10  10  10  10  10  10  10   2 15 8 
   5  10  10  10  10  10  10  10  10  10  10   4 21 20 15 13 
   2  10  10  10  10  10  10  10  10  10  10   3 20 16 13 
   2  10  10  10  10  10  10  10  10  10  10   3 21 20 13 
   6  10  10  10  10  10  10  10  10  10  10   5 21 20 18 17 14 
  10  10  10  10  10  10  10  10  10  10  10   4 20 17 15 14 
   9  10  10  10  10  10  10  10  10  10  10   2 15 13 
   9  10  10  10  10  10  10  10  10  10  10   3 18 17 14 
   7  10  10  10  10  10  10  10  10  10  10   1 19 
  10  10  10  10  10  10  10  10  10  10  10   1 18 
   8  10  10  10  10  10  10  10  10  10  10   1 17 
   6  10  10  10  10  10  10  10  10  10  10   1 22
   8  10  10  10  10  10  10  10  10  10  10   1 22
   3  10  10  10  10  10  10  10  10  10  10   1 22
   1  10  10  10  10  10  10  10  10  10  10   1 22
   6  10  10  10  10  10  10  10  10  10  10   1 22
   0   0   0   0   0   0   0   0   0   0   0   0 
